units            real
dimension     3
boundary      p p p



variable       T equal 94.4
variable       P equal 73



lattice          fcc  7
region          box  block -5 5 -5 5 -5 5
create_box    1 box
create_atoms         1 box



mass           1  39.948



pair_style     lj/cut  15
pair_coeff     1  1    0.24   3.4



#Equiberation
velocity        all create $T 14235245 mom yes rot yes dist gaussian
